n = 15;
colSum=[11,11,5,7,5,5,8,7,1,3,1,1,5,2,4];
rowSum=[3,2,4,4,3,8,6,8,5,9,6,4,5,5,4];
groups=[|1,1,1,1,2,2,2,2,3,3,3,3,3,3,3|4,4,1,1,1,1,2,5,3,5,5,5,5,5,3|4,1,1,1,2,2,2,5,3,3,5,5,3,3,3|4,4,4,1,2,2,5,5,3,5,5,6,6,6,3|4,7,7,1,2,5,5,5,5,5,5,5,6,6,3|4,7,7,7,2,2,2,2,5,5,5,5,6,6,3|8,8,8,8,8,8,2,2,5,6,6,6,6,6,9|8,10,10,10,8,8,11,6,6,6,9,9,6,6,9|8,10,12,12,8,11,11,6,6,9,9,9,9,9,9|8,10,12,12,12,11,11,11,11,9,9,11,11,11,9|13,13,13,14,14,14,14,14,11,9,11,11,9,9,9|14,13,14,14,15,14,15,14,11,11,11,11,11,11,9|14,14,14,14,15,15,15,15,15,15,11,11,11,11,9|16,17,14,14,18,18,18,18,18,15,11,15,11,15,15|16,17,14,14,18,18,18,18,18,15,15,15,15,15,15|];
rowN = 18;
colN = 18;
pair=[|0,1,0,1,0,0,1,0,0,0,0,0,0,0,0,0,0,0|1,0,1,0,1,1,0,1,0,0,1,0,0,0,0,0,0,0|0,0,0,0,1,1,0,0,1,0,0,0,0,0,0,0,0,0|1,0,0,0,0,0,1,1,0,0,0,0,0,0,0,0,0,0|0,1,1,0,0,1,0,0,0,0,0,0,0,0,0,0,0,0|0,0,1,0,1,0,0,0,1,0,1,0,0,0,0,0,0,0|1,1,0,0,0,0,0,1,0,0,0,0,0,0,0,0,0,0|0,1,0,0,0,0,0,0,0,1,1,1,1,0,0,0,0,0|0,0,0,0,0,1,0,0,0,0,1,0,0,0,1,0,0,0|0,0,0,0,0,0,0,1,0,0,0,1,1,0,0,0,0,0|0,0,0,0,0,1,0,0,1,0,0,0,0,1,1,0,0,0|0,0,0,0,0,0,0,1,0,0,1,0,1,1,0,0,0,0|0,0,0,0,0,0,0,0,0,0,0,0,0,1,0,0,0,0|0,0,0,0,0,0,0,0,0,0,1,0,1,0,1,1,1,1|0,0,0,0,0,0,0,0,0,0,1,0,0,1,0,0,0,1|0,0,0,0,0,0,0,0,0,0,0,0,0,0,0,0,1,0|0,0,0,0,0,0,0,0,0,0,0,0,0,1,0,0,0,0|0,0,0,0,0,0,0,0,0,0,0,0,0,0,1,0,0,0|];
